N = 5;
H = 5;
T = 2;

avail = array3d(1..N, 1..H, 1..T, [2, 7, 6, 7, 8, 7, 10, 2, 3, 2, 0, 3, 4, 4, 7, 7, 8, 8, 8, 10, 8, 9, 8, 0, 3, 0, 8, 3, 5, 7, 5, 9, 5, 4, 3, 6, 4, 0, 1, 1, 4, 7, 4, 7, 10, 2, 6, 2, 6, 1]);

r = array2d(1..H, 1..T, [2, 1, 2, 2, 1, 1, 2, 0, 1, 0]);
